# Diffusion - Migration - Potential - Nucleation - Reaction Modeling
# Cycling
# nucleation equation implementation with nucleation rate 
# 6/8/23
# Madison Morey

log 		${dname}/log.lammps
dimension       2
units		micro
atom_style	meso/new
boundary        f f p 

# Adding particle properties - anion concentration, change in anion concentration, cation concentration, change in cation concentration, anion mobility, cation mobility,anion diffusion coefficient, cation diffusion coefficient, reaction rate coefficient for cations at anode, surface energy for cations at anode, mass of metal, change in mass of metal, local potential, next local potential, next local potential, x-normal component, next x-normal component, y-normal component, next y-normal component, z-normal component, next z-normal component

fix             prop all property/atom d_cA d_dcA d_cC d_dcC d_muA d_muC d_DA d_DC d_RC d_surf_energy d_rR d_drR d_nN d_dnN d_mM d_dmM d_local_pot d_nx d_ny d_nz ghost yes

# Particle property values
include         /projectnb/ryanlab/mmorey/LAMMPS_BATTERY_SEI/Case2/runLAMMPS/vars.lmp
#include		projectnb/ryanlab/mmorey/LAMMPS_BATTERY_SEI/Case2/runLAMMPS/vars.lmp

# Domain creation and particle spacing
lattice	        sq ${dx} origin 0.5 0.5 0	
region		box block 0 ${L_x} 0 ${L_y} 0 ${dx} units box
create_box	3 box
create_atoms	1 box

# Create regions
region        rliquid1    block EDGE ${rc1} ${anode_end} ${const_conc}  EDGE EDGE units box
region        rliquid2    block ${rc1} ${rc2} ${anode_end} ${const_conc}  EDGE EDGE units box
region        rliquid3    block  ${rc2} ${rc3} ${anode_end} ${const_conc}  EDGE EDGE units box
region        rliquid4    block  ${rc3} ${rc4} ${anode_end} ${const_conc}  EDGE EDGE units box
region        rliquid5    block ${rc4} EDGE ${anode_end} ${const_conc}  EDGE EDGE units box

region        rsolid1     block EDGE ${rc1} EDGE ${anode_end}  EDGE EDGE units box
region        rsolid2     block ${rc1} ${rc2} EDGE ${anode_end}  EDGE EDGE units box
region        rsolid3     block ${rc2} ${rc3} EDGE ${anode_end}  EDGE EDGE units box
region        rsolid4     block ${rc3} ${rc4} EDGE ${anode_end}  EDGE EDGE units box
region        rsolid5     block ${rc4} EDGE EDGE ${anode_end}  EDGE EDGE units box

region        rconstconc block EDGE EDGE ${const_conc} EDGE EDGE EDGE units box


# Combine regions into groups
group         liquid1 region rliquid1
group         liquid2 region rliquid2
group         liquid3 region rliquid3
group         liquid4 region rliquid4
group         liquid5 region rliquid5

group         constconc region rconstconc

group         solid1	region rsolid1
group         solid2    region rsolid2
group         solid3    region rsolid3
group         solid4    region rsolid4
group         solid5    region rsolid5

# Combine regions into groups
set             group liquid1 type 1 # liquid is 1
set             group liquid2 type 1
set             group liquid3 type 1
set             group liquid4 type 1
set             group liquid5 type 1

set             group constconc type 1

set             group solid1 type 2
set             group solid2 type 2
set             group solid3 type 2
set             group solid4 type 2
set             group solid5 type 2

displace_atoms  all random 0.2 0.2 0 798534

# Assign particle property values to regions
include		/projectnb/ryanlab/mmorey/LAMMPS_BATTERY_SEI/Case2/runLAMMPS/particleProp.lmp

# Set the number of cycles
#variable  	total_half_cycles equal 10
#variable  	total_cycles equal ${total_half_cycles}/2-2

#print		"**************************** Charge cycle number: 1/${total_half_cycles} *******************"


########################################################################
########################### Set fixes ##################################
################## Constant across all runs ############################
########################################################################

# Calculate normals at interface
fix             norm_calc       all sph/surfacenormal ${d}

# Constant concentration fixes for boundary
fix             constant_concentration_cA constconc sph/constant/cA ${sph_const_cA}
fix             constant_concentration_cC constconc sph/constant/cC ${sph_const_cC}

# Calculate the local potential
fix             pot_calc0        all sph/electropotential ${h} ${sph_conc_to_charge} ${sph_applied_pot_ch} 0.0 ${L_y}

# Sum the changes and precipitate/dissolve solids
fix		sum_changes_fix all sph/concentration/mass/radius
fix		precip_diss_fix all sph/precipitation/dissolution/liquidRC ${sph_mass_thres} ${sph_cCeq_ch} ${sph_cAeq_ch}

########################################################################
####################### Set pair style #################################
############## Pair style changes for cycling ##########################
########################################################################

# Initial pair style
# Allows different reaction rates to be set for different groups

pair_style      sph/twospecies/isodiffusion/migration/csr/bv/nucleation
pair_coeff      * * ${h} ${d} ${sph_applied_pot_ch} ${sph_cC_init} ${sph_cA_init} ${sph_mass_thres} ${sph_N} ${sph_theta}

# For LAMMPS neighbor lists
neighbor        ${h} bin

# Dump fix 
dump            dump_fix0 all custom ${nfreq_init} ${dname}/dump.*.dat id type x y d_cA d_dcA d_cC d_dcC d_mM d_dmM d_surf_energy d_nN d_dnN d_local_pot

timestep        ${dt_init}

# Print to screen 
variable           time equal step*dt
thermo_style       custom step v_time
thermo             ${nfreq_init}

run             ${nrun_init}

# ####################################################################################
# ################################ Loop for running cycles ###########################
# ####################################################################################

# # a: the variable to be incremented, loop: the variable where the loop will return to
# # : the number of times a will be incrememted before the loop exits
# # Further clarification in docs (lammps.sandia.gov/doc/jump.html)

# variable      a loop ${total_cycles}
# label       loop
# variable      half_cycle_number equal ${a}*2
# print  "**************************** Discharge cycle number: ${half_cycle_number}/${total_half_cycles} *******************"

